c File: data_files/evolved_graphs/g5435.col
c
c Auto generated graph
c
p edge 100 22
e 1 4
e 2 4
e 2 5
e 2 6
e 2 45
e 2 47
e 2 63
e 3 4
e 3 21
e 3 49
e 3 56
e 3 60
e 3 99
e 4 5
e 4 6
e 5 7
e 6 7
e 24 26
e 24 27
e 24 28
e 24 29
e 24 57
